Maximize
  - 5 C0 + C3 - 3 C4 - 3 C5 - 2 C6
Subject To
 R0: - 2 C0 + C2 - 2 C3 - 2 C4 + C5 - C6 <= 1
 R1: - C1 + C2 + C3 - C4 - C5 + C6 <= 6
 R2: - 2 C1 - 2 C2 + C3 - C4 - 2 C5 <= 8
 R3: - 2 C0 + C1 - 2 C2 + C3 + C4 - C5 - 2 C6 <= 6
 R4: C0 + C1 + C2 - C3 - C4 + C5 - C6 <= 1
 R5: - 2 C0 + C1 + C2 + C3 - C4 - C5 + C6 <= 6
 R6: - 2 C0 + C1 + C2 - 2 C3 - 2 C5 - 2 C6 <= 4
Bounds
 C0 free
 C1 free
 C2 free
 C3 free
 C4 free
 C5 free
 C6 free
Generals
 C0 C1 C2 C3 C4 C5 C6
End
